============================[ Problem Statistics ]=============================|                                                                             ||  Number of variables:          4242                                         ||  Number of clauses:            9953                                         ||  Parse time:                   0.35 s                                       ||                                                                             |============================[ Search Statistics ]==============================| Conflicts |          ORIGINAL         |          LEARNT          | Progress ||           |    Vars  Clauses Literals |    Limit  Clauses Lit/Cl |          |===============================================================================|       100 |    1591     6158   544779 |     2257      100     53 | 62.501 % |===============================================================================restarts              : 2conflicts             : 200            (377 /sec)decisions             : 371            (0.00 % random) (699 /sec)propagations          : 10066          (18957 /sec)conflict literals     : 14085          (95.16 % deleted)CPU time              : 0.531 sSATISFIABLE